
 102   30
  10   10   10   10   10   10   10   10   10   10   10   10   10   10   10   10   10   10   10   10   10   10   10   10   10   10   10   10   10   10

   0   0   0   0   0   0   0   0   0   0   0   0   0   0   0   0   0   0   0   0   0   0   0   0   0   0   0   0   0   0   0  26 2 3 4 5 6 7 8 9 10 11 12 13 14 15 16 18 19 20 21 23 24 25 26 27 30 31 
   9   0   0   0   0   0   0   0   1   0   0   0   0   0   0   0   0   0   0   0   4   0   0   0   0   0   0   1   0   0   0  20 101 100 99 98 80 79 78 68 67 57 55 50 49 47 45 42 37 35 33 32 
   1   0   0   0   0   0   0   0   0   0   0   0   0   2   0   0   0   0   0   2   0   0   0   1   0   1   0   0   1   0   0  14 101 79 62 60 57 56 50 49 48 47 40 37 32 22 
   9   0   1   0   0   0   0   0   0   0   0   0   0   0   0   0   1   0   0   0   0   0   0   5   0   6   0   0   0   0   3  12 68 66 65 63 59 56 49 47 45 44 37 17 
   1   0   0   0   0   0   0   0   0   0   0   1   0   0   0   0   0   0   0   0   0   0   0   0   0   0   0   0   0   1   0  12 101 100 69 68 62 60 56 53 50 47 32 22 
   9   0   0   0   0   0   0   0   0   0   1   0   0   6   0   0   0   0   0   6   0   0   0   0   2   0   0   0   0   0   0   9 97 79 60 58 47 39 38 33 22 
   4   0   0   0   0   0   0   0   0   0   4   5   3   0   0   0   0   3   0   6   3   0   0   0   0   0   1   0   6  10   0  17 99 98 97 80 68 61 60 59 58 54 53 51 49 48 47 37 33 
   4   0   3   0   0   0   0   0   0   0  10   6   0   0   0   1   0   0   0   0   0   0   3   5   0   0   0   0   0   0   4  10 69 66 60 56 55 46 45 37 29 28 
   9   0   0   2   0   0   0   0   0   0   0   0   0   0   0   0   0   0   0   0   0   0   0   0   0   0   0   0   0   0   0  15 99 96 75 68 65 63 62 60 52 47 40 38 37 36 35 
   6   0   0   0   0   1   0   0   0   0   8   6   0   0   0   0   4   0   0   0   0   0   0   0   0   0   0   0   0   0   4  16 101 100 99 98 80 79 75 65 60 56 53 52 47 41 37 32 
   5   0   0   0   0   0   4   0   0   0   0   0   0   0   1   0   0   0   0   0   0   2   0   0   0   0   0   0   0   0   0  14 101 99 98 96 80 79 78 75 65 60 51 42 37 32 
   6   0   0   0   1   0   0   0   0   0   0   0   0   0   0   0   0   0   0   0   0   0   0   0   0   0   0   0   7   0   0  11 96 79 77 73 65 60 58 45 43 35 34 
   5   0   7   0   0   0   0   0   0   0   0   0   6   0   0   6  10   0   0   0   0   0   0   0   0   0   0   0   0   0   0  20 100 99 98 97 93 91 77 76 75 71 69 68 67 66 62 60 57 48 47 45 
   9   3   0   0   0   0   0   0   0   0   0   0   0   0   0   0   9   0   0   0   0   0   4   0   0   0   0   0   0   0   0  15 99 97 79 77 76 75 66 65 64 62 58 52 48 47 44 
   6   0   0   0   5   0   4   0   0   0   0   0   0   5   0   0   0   0   1   0   0   0   0   0   7   0   0   0   0   0   0  19 101 98 97 95 91 80 78 77 76 75 74 68 67 64 63 62 57 54 42 
   6   0   0   0   0   0   0   0   0   0   0   0   0   0   0  10   0   2   0   0   0   0   0   0   0   0   0   0   2   9   0  12 101 99 98 96 79 75 64 63 56 54 47 32 
  10   0   0   0   0   0   0   0   3   0   0   0   0   0   0   0   6   0   0   0   0   4   0   0   0   0   0   0   0   0  10  17 99 97 96 94 93 91 89 78 76 75 73 70 64 62 53 52 39 
  10   0   0   0   0   0   0   0   0   1   0   0   0   0   0   6   0   5   0   0   0   0   0   0   0   0   0   0   7   0   0  17 101 100 98 97 95 91 78 77 76 75 67 65 64 62 60 45 42 
   6   0   0   0   0   0   0   0   0   0   0   5   8   0   0   0   0   5   0   0   0   0   0   0   0   0   0   0   8   0   0  15 101 96 94 89 79 78 75 73 66 64 63 56 53 50 45 
   6   5   0   0   0   0   0   0   0   0   0   0   0   0   0   0  10   5   0   0   0   0   0   0   0   0   0   0   0   0   0  12 98 97 94 90 78 76 75 74 70 67 51 33 
   6   0   0   5   0   0   0   2   0   0   0   0   0   0  10   0   0   5   0   0   0   0   0   0   0   0   0   0   9   0   0  16 99 95 94 93 92 78 76 75 73 64 63 61 60 55 53 45 
   7   0   0   0   0   0   0   0   0   0   0   3   0   0   0   0   0   0   0   0   0   0   0   0   0   0   0   0   0   0   0  18 99 98 96 95 94 93 91 89 87 80 78 76 75 73 67 65 64 45 
   3   0   0   0   0   0   0   0   0   0   0   0   0   8   0   9   0   0   0   0   9   0   8   0   0   0   0   0   0   0   0  14 99 97 96 95 94 91 78 75 73 68 63 54 52 39 
   5   0   0   0   0   7   0   3   0   0   6   0   0   0   0   8   0   0   0   0   0  10   0   0   0   0   0   0   0   0   0  12 100 99 97 89 78 75 69 66 65 61 53 37 
   4   5   0   0   0   0   0   0   0   0   0   0   0   0   0   0   0   0   0   0   0   7   0   0   0   0   0   0   0   0   0  10 100 99 75 74 73 72 67 65 44 35 
   7   0   0   0   8   7   6   0   7   0   0   0   0   0   0   0   0   0   0   0   0   0   0   0   8   0   0   4   0   0   0  15 101 100 97 96 95 93 92 91 80 76 71 70 61 52 42 
   8   0   0   0   0   0   7   0   0   0   6   0   0   0   6   0   0   0   0   0   0   0   0   5   4   0   0   0   0   5   0  13 95 94 93 91 78 75 71 70 69 66 57 52 39 
   8   0   9   5   0   0   0   0   0   0   0   0   6   0   0   0   0   0   0   0   0   0   0   0   0   0   0   0   9   0   0  17 100 99 98 95 92 91 90 86 78 77 76 75 74 70 68 61 47 
   4   0   0   0   0   0   0   0   0   0   0   0   0   0   0   0   0   0   0   0   0   0   0   0   0   0   0   0   0   0   0  11 101 99 91 78 75 68 65 64 61 57 52 
   4   0   0   0   0   0   0   0   0   0   9   0   0   0   0   0   0   0   5   0   9   0   1   8   0   0   0   0   0   0   0  10 97 90 88 84 78 77 71 65 57 49 
   7   0   0   0   0   0   0   0   0   0   0   0   0   0   0   8   0   0   0   6   0   0   8   0   0   0   0   0   0   9   0  10 96 87 79 77 73 70 69 66 62 49 
  10   0   0   0   0   0   0   0   8   0   4   0   0   0   0   0   0  10   0   0   8   9   0   0   0   0   0   0   0   8   0  13 97 93 90 86 77 76 74 73 71 70 66 61 58 
   3   0   0   0   0   0   0   0   0   0   0   6   0   0   0   0   0   0   0   0   0   0   0   0   0   0   0   0   0   0   0  13 96 91 89 87 82 77 73 72 66 64 63 62 56 
   1   0   0   0   9   0   0   0   0   0   6   0   0   0   5   0   0   0   0   0  10   0   0   0   0   0   0   0   0   0   0   9 100 99 98 94 88 87 86 70 49 
   9   5   0   0   0   0   0   0   0   0   0   0   0   0   0   0   0   0   0   2   0   0   0   0   0   0   0   0   0   0   0  10 97 95 90 89 86 76 70 66 64 61 
   6  10   0   0   0   0   0   0   0   0   0   0   0   0   0   0   0   0   0   0   0   8   5   0   0   0   0   0   0   0   0  12 101 98 94 92 91 88 86 81 79 74 73 61 
   3   0   0   8   0   0   0   0   7   0   0   0   0   0   0   0   0   0   0   6   0   0   0   0   0   0   5   0   0   0   0  11 93 91 90 87 86 85 83 74 73 70 64 
   7   0   0   0   0   0   0   0   0   0   0   8   0   0   0   0   0   0   0   0   0   0   0   0   0   0   8   0   0   3   0  11 98 93 92 91 90 86 82 76 73 71 61 
   7   0   0   0   5   0   0   0   0   3   0   0   3   0   0   0   0   4   0   0   0   0   0   0   0   0   0   0   0   0   0   9 101 100 98 90 88 86 74 72 61 
   2   0   0  10   8   0   0   0   0   0   9   0   0   0   0   0   0   0   0   0   9   0   0   0   0   0   0   0   0   0   0  10 100 93 89 87 85 84 77 74 70 67 
   2   7   0   0   0   0   9   0   0   0   0   0   0   0   0   0   0   0   0   0   0   0   0   0   0   0   0   0   0   0   0   9 97 93 91 90 85 73 71 70 68 
   8   0  10   0   0   0   6   0   0   7   0   0   0   0   0   0   0   0   0   0   0   0   4   0   0   0   0   0   0   6   0   9 94 89 87 86 85 82 73 72 66 
   2   0   5   0   0   0   0   0   6   7   0   8   0   0   0   0   0   0   0   0   0   0   0   0   0   0   4   0   0   0   0   8 94 90 87 86 85 83 82 64 
   3   0   0   0   0   0   0   0   0   0   0   0   5   0   0   0   0   0   0   0   0   0   0   0   0   0   3   0   0   0   0   6 93 90 88 84 83 57 
   9   0   0   0   0   0   0   0   0   8   0   0   0   0   0   0   0   9   5   6   0   0   8   0   0   0   0   0   0   0   0   3 86 84 52 
   5   0   0   0   8   0   6   8   0   0   6   0   0   0   0   0   0   0   0   0   0   5   0   0   0   0   0   0   0   0   0   8 98 97 96 95 88 84 83 70 
  10   3   0   0   0   0   0   0   0   0   0   0   0   0   0   0   0   0   0   0   0   6   0   0   0   0   7   0   0   0  10   7 94 89 85 83 82 73 72 
   2   0   0   0   0   0   0   0   0   0   5   0   0   0   0   4   0   0   5   8   0   0   0   0   0   0   0   9   0   0   0   7 94 89 85 83 82 78 73 
   2   3   0   0   0   0   0   0   6   0   0   0   0   0   0   0   0   0   0   0   0   0   0   0   0   0   0   0   0   0   0   6 93 89 82 76 75 72 
   4   0   0   0   0   0   0   0   0   0   5   0   0   0   0   0   0   0   0   0   5   0   0   0   0   0   0   0   0   0   0   5 91 87 72 71 65 
  10   0   0   6   0   0   0   0   0   0   0   0   0   0   0   0   0   0   6   0   0   0   0   0   0   0   0   0   0   0   0   5 88 86 83 82 64 
   4   0   0   0   0   4   0   0   0   0   0   0   0   0   0   0   0   0   0   0   4   0   0   0   8   0   0   0   0   0   0   5 90 88 83 74 72 
   5   0   0   0   0   0  10   0   0   0   0   0   0   0   0   0   0   0   0   0   0   8   0   0   0   0   0   0   8   0   1   5 82 77 72 71 67 
   4   0   0   0   0   0   0   0   4   0   0   9   0  10   0   0   0   0   0   0   3   0   0   0   0   0   0   0   6   0   0   5 90 89 87 71 70 
   1   0   0   4   0   0   0   9   0   7   0   0   0   0   3   0   0   0   0   0   0   0   7   0   4   0   0   0   0   0   0   5 91 86 83 71 70 
   6   0  10   0   0   0   0   5   0   0   0   0  10   0   6   0   0   0   0   0   0   0   0   0   0   0   0   0   4   4   6   6 95 88 86 85 83 81 
   4   0   0   0   0   0   0   0   0   0   0   0   0   0   6   0   0  10   0   0   0   0   7   0   5   0   0   0   0   0   0   5 96 89 87 86 85 
   5   0   0  10   0   0   0   0   0   0   0   7   0   0   0   2   0   0   0   0   0   0   0   0   0   0   0   5   0   0   0   5 95 91 89 83 81 
   2   0   0   0   7   0   0   0   8   0   0   0   0   0   0   0   0   0   0   0   0   0   0   0   0   0   0   0   0   0   0   4 91 88 84 83 
   8   0   0   4   0   0   0   0   0   0   0   0   0   0   0   0   0   0   0   0   0   0   0   0   0   0   0   0   0   0   8   3 86 83 70 
   4   0   0   0   0   4   0   0   0   0   0   0   0   0   8   0   0   0   0   0   0   0   0   0   0   0   0   0   0   0   0   3 87 85 84 
   1   0   0   0   6   8   0   4   0   0   0   0   0   0   0   0   0   0   0   0   0   0   0   0   0   0   0   0   0   0   3   3 92 86 83 
   9   0   0   4   0   3   0   0   9   0   0   0   0   8   0   0   0   0   0   0   0   0   0   0   0   0   0   0   0   9   0   3 86 84 81 
  10   0   0   0   0   0   0   0   0   0   0   0   0   0   0   0   4   0   0   0   0   0   0   0   0   0   2   5   0   0   0   2 84 71 
   4   0   4   0   6   0   0   0   0   0   0   4   0   0   0   0   0   5   0   0   0   0   0   0   0  10   4   0   0   0   0   2 92 70 
  10   8   0   0   0   0   0   0   0   5   0   0   0   0   0   0   0   0   0   0   0   0   0   7  10   0   7   0   0   0   0   2 83 81 
  10   0   9   0   0   0   0   0   0   0   0   0   7   5   0   0   0   0   0   0   0   6   4   9   0   7   0   0   5   0   0   2 83 81 
   5   0   0   0   0   0   4   0   0   7   0   0   0   0   0   0   0   0   0   0   0   0   0   0   0   0   8   0   0   0   0   2 88 84 
   9   0   0   0   0   0   0   0   0   0   0   0   0   0   0   0   0   7   0   0   0   0   0   0   0   0   0   0   0   0   0   2 88 82 
  10   0   0   0   0   8   0   0   0   0   0   0   8   0   0   0   0   7   0   0   5   0   0   0   0   0   9   0   0   0   0   1 82 
   3   0   0   0   0   0   0   0   0   0   0   0   0   0   0   0   0   0   0   0   0   0   0   0   0   0   9   8   0   0   0   1 81 
   9   0   0   0   7   0   0   0   0   0   0   0   7   0   0   0   0   0   6   0   0   0   0   0   0   0   0   0   0   6   0   1 81 
   4   0   0   0   6   0   0   0   0   0   0   0   0   0   0   0   0   0   0   0   0   0   0   0   8   0   0   0   0   0   0   1 84 
   9   5   0   5   4   6   0   0   0   0   0   0   0   0   0   0   0   0   9   0   0   0   0   0   0   0   0   0   0   7   0   1 82 
   4   0   0   0   4  10   0   0   0   0  10   0   0   0   0   0   0   0   0   6   0   0   0   0   0   0   0   0   0   0   0   1 83 
  10   0   0   0   0   0   0   0   0   0   0   0   0   0   0   5   0   0   0   0   0   0   0   0   0   0   0   0   0   0   0   1 85 
   5   8   0   0   0   0   0   0   0   0   0   0   0   6   0   0   0   0   0   0   8   0   0   0   0   0   0   0   0   0   0   1 83 
   6   0   3   8   0   0   0   0   0   7   0   0   0   0   0   0   0   0   0   0   0   0   0   0   0   0   0   0   0   6   5   1 81 
   7   0   0   0   0   0   0   0   0   0   0   0   0   0   0   7   0   0   0   0   0   0   0   0   0   0   0   0   0   0   0   1 85 
   3   0   0   0   0   0   0   0   0   8   0   0   0   0   0   0   0   0   0   0   0   0   0   0   0   0   0   0   6   0   0   1 82 
   6   0   0   0   0   0   0   0   0   5   0   0   0   0   0   7   0   0   0   0   0   0   0   0   0   0   0   0   0   0   0   1 102
   3   0   7   0   0   0   0   0   0   0   4   0   0   0   0   0   0   7   0   0   0   0   0   0   0   0   0   0   0   0   0   1 102
   6   5   0   0   9   0   0   0   0   0   0   0   0   0   0   0   0   0   0  10   5   0   0   0   0   0   0   0   0   0   0   1 102
   5   0   0   0   0   0   0   0   0   0   0   0   0   3   5   0   0   0   0   5   0   0   0   0   0   0   0   0   0   0   0   1 102
   6   0   0   6   0   0   0   0   0   0   0   0   0   0   0   0   0   0   0   0   4   0   0   0   0   0   0   6   0   0   0   1 102
  10   0   0   0   0   0   0   7   0   0   0   0   0   0   0   0   0   0   4   0   0   5   0   5   0   0   0   0   0   0   0   1 102
   3   8   0   0   0   0   0   0   4   7   0   0   0   0   0   0   0   0   0   0   0   0  10   9   0   0   0   0   0   0   0   1 102
   2   0   0   0   0   0   0   0   6   5   0   8   0   0   0   0   0   0   0   0   0   0   0   0   0   0   0   0   4   0   0   1 102
   2   0   4   0   4   0   0   0   0   0   0   0   0   0   9   0   0   0   0   0   0   0   0   0   0   0   6   0   0   4   0   1 102
   4   0   0   0   0   0   0   0   0   0   0   0   0   6   0   0   0   0  10   0   0   3   6   0   0   0   0   0   0   0   0   1 102
   7   0   0   0   0   0   0   0   0   0   0   0   0   0   0   0   0   0   0   0   0   0   0   0   0   0   0   0   0   0   6   1 102
  10   0   0   0   0   0   0   0   0   0   0   0   0   0   0   0   0   0   0   6   0   0   0   0   3   0   0   0   0   0   8   1 102
   7   0   0   0   0   0   0   0   0   0   0   8   0   0   0   0   0   5   5   0   0   0   0   0   0   0   5   0   0   0  10   1 102
   9   0   7   0   6   0   0  10   0   9   0   0   0   5   0   0   0   0   7   0   0   0   0   0   0   0   0   0   0   0   0   1 102
   9   9   5   0   0   8   0   0   0   0   0   0   0  10   7   5   0   0   0   5   0   0   0   0   0   0   9   8   0   3   4   1 102
   8   0   0   0   5   0   0   6   8   0   0   0   0   0   0   0   0   0   0   0   7   0   0   0   0   0   0   0   8   0   0   1 102
   7   0   0   7   0   0   0   0   0   0   0   6   6   0   0   0   0   0   9   0   0   0   0   0   0   0   0   0   0   0   0   1 102
  10   0   0   0   0   0   0   0   0   4   0   0   0   0   0   0   0   0   0   0   3   0   0   0   0   0   9   0   0   0   0   1 102
   5   0   0   0   0   0   0   0   7   0   0   0   0   0   0   0   0   0   0  10   0   5   0   0   0   0   6   0   0   0   8   1 102
   7   0   0   0   0   0   4   0   0   0   3   0   2   4   0   0   0   0   0   0   0   6   9   0   0   0   0   8   0   0   0   1 102
   4   6   0   0   0   0   0   0   0   0   0   0   7   0   0   0   4   7   0   0   0   0   0   0   7   0   0   0   0   0   0   1 102
   0   0   0   0   0   0   0   0   0   0   0   0   0   0   0   0   0   0   0   0   0   0   0   0   0   0   0   0   0   0   0   0 
